26 52 31 19 46 7 60 5 
59 92 37 50 78 55 75 
28 29 53 54 68 24 80 
83 96 15 57 41 56 13 21 
12 27 76 79 81 20 32 70 
3 33 1 30 51 34 89 58 
48 69 18 6 97 98 91 85 93 
39 94 99 84 95 100 2 
82 36 47 90 66 35 77 
72 16 61 87 74 4 25 
42 40 73 22 17 
63 62 88 43 
45 44 38 86 
14 8 10 
65 71 9 
11 64 49 
23 67 

